n=8;
m=21;
k=2;
initial_edges=[
(1, 5),
(1, 8),
(1, 7),
(1, 2),
(1, 3),
(2, 7),
(2, 4),
(2, 5),
(2, 6),
(2, 8),
(3, 5),
(3, 7),
(3, 6),
(3, 4),
(4, 6),
(4, 5),
(4, 8),
(4, 7),
(5, 7),
(6, 7),
(6, 8),
];